110750786 -1 0
75725783 2 0
53056044 3 0
116934034 2 0
99436712 -2 0
191149706 4 0
141306329 5 0
136886543 -2 0
148390925 4 0
219188876 2 0
151940909 2 0
91277743 -6 0
243514067 6 0
65356814 -7 0
221954138 -3 0
201980716 2 0
43462259 -2 0
231405193 -7 0
190894208 -4 0
236807417 -3 0
184173546 -6 0
223067260 -8 0
127321429 2 0
52972009 -4 0
172250404 1 0
110281661 1 0
245678878 2 0
207870760 -3 0
191440905 1 0
